#SOLVERNAME# PAJ_CPLEX_MOSEK_msd
#SOLVER# Pajarito.PajaritoSolver(3, 3600.0, 1.0e-5, true, CPLEX.CplexSolver(Any[(:CPX_PARAM_THREADS, 1), (:CPX_PARAM_SCRIND, 1), (:CPX_PARAM_EPINT, 1.0e-9), (:CPX_PARAM_EPRHS, 1.0e-8), (:CPX_PARAM_EPGAP, 1.0e-5)]), Pajarito.UnsetSolver(), 0, false, true, Mosek.MosekSolver(Any[(:LOG, 0), (:NUM_THREADS, 1), (:MSK_DPAR_INTPNT_CO_TOL_REL_GAP, 1.0e-10), (:MSK_DPAR_INTPNT_CO_TOL_PFEAS, 1.0e-10), (:MSK_DPAR_INTPNT_CO_TOL_DFEAS, 1.0e-10), (:MSK_DPAR_INTPNT_CO_TOL_NEAR_REL, 1000.0)]), true, true, false, false, true, false, false, true, false, true, true, true, true, false, true, 10.0, true, false, false, true, 1.0e-12, 1.0e-8, false, "")
#INSTANCE# 10_0_5_w.cbf.gz
#TIMELIMIT# 3600.0

Problem dimensions:
       variables |    1440
     constraints |    4199
   nonzeros in A |   18078

Cones summary:
Cone             | Count   | Min dim.  | Max dim. 
    Rotated S.O. |     240 |         3 |         3

Variable types:
      continuous |    1200
         integer |     240

Transforming data...               0.01s

Creating conic subproblem...       0.01s

Building MIP model...              0.01s

Solving conic relaxation...        0.17s
 - Relaxation status    =        Optimal
 - Relaxation bound     = 1927024.910799

Mixed integer rounding cuts applied:  3
Gomory fractional cuts applied:  3
User cuts applied:  165

Root node processing (before b&c):
  Real time             =    0.37 sec. (17.23 ticks)
Sequential b&c:
  Real time             =    0.01 sec. (7.71 ticks)
                          ------------
Total (root+branch&cut) =    0.38 sec. (24.94 ticks)
Warning: Control callbacks may disable some MIP features.
Tried aggregator 2 times.
MIP Presolve eliminated 2689 rows and 152 columns.
MIP Presolve modified 183 coefficients.
Aggregator did 214 substitutions.
Reduced MIP has 3453 rows, 1549 columns, and 11849 nonzeros.
Reduced MIP has 197 binaries, 0 generals, 0 SOSs, and 0 indicators.
Presolve time = 0.01 sec. (12.98 ticks)
Probing fixed 6 vars, tightened 14 bounds.
Probing time = 0.00 sec. (3.07 ticks)
Clique table members: 886.
MIP emphasis: balance optimality and feasibility.
MIP search method: traditional branch-and-cut.
Parallel mode: none, using 1 thread.
Root relaxation solution time = 0.06 sec. (44.87 ticks)

        Nodes                                         Cuts/
   Node  Left     Objective  IInf  Best Integer    Best Bound    ItCnt     Gap

      0     0  1938462.4236    71                1938462.4236     1540         
*     0+    0                      1974062.2042  1938462.4236             1.80%
      0     0  1951597.5437    78  1974062.2042     Cuts: 276     2098    1.14%
      0     0  1953820.5154    67  1974062.2042     Cuts: 108     2310    1.03%
      0     0  1954077.3185    69  1974062.2042      Cuts: 67     2533    1.01%
      0     0  1954187.6860    78  1974062.2042      Cuts: 28     2658    1.01%
      0     0  1954264.5338    74  1974062.2042      Cuts: 30     2766    1.00%
      0     0  1954452.7324    72  1974062.2042      Cuts: 19     2905    0.99%
      0     0  1954667.8146    81  1974062.2042      Cuts: 44     3062    0.98%
      0     0  1954770.2212    87  1974062.2042      Cuts: 38     3147    0.98%
      0     2  1954770.2212    87  1974062.2042  1954770.3994     3147    0.98%
Elapsed time = 1.75 sec. (1282.83 ticks, tree = 0.01 MB, solutions = 1)
     12    12  1957264.8827    12  1974062.2042  1955229.1774     4340    0.95%
*    20+   18                      1957919.7462  1955229.1774             0.14%
*    22    20      integral     0  1957805.9388  1955229.1774     4524    0.13%
     42    28  1956250.0022    26  1957805.9388  1955879.3615     6176    0.10%
*    70    20      integral     0  1957128.3256  1956254.1385     8157    0.04%
     74    17        cutoff        1957128.3256  1956384.2268     8319    0.04%
*    80+   10                      1956871.2669  1956467.2866             0.02%

Starting MIP-solver-driven algorithm
Mosek problem is Mosek.MSK_PRO_STA_UNKNOWN, solution is Mosek.MSK_SOL_STA_UNKNOWN, response is Mosek.MSK_RES_OK

Mosek problem is Mosek.MSK_PRO_STA_UNKNOWN, solution is Mosek.MSK_SOL_STA_UNKNOWN, response is Mosek.MSK_RES_OK

Mosek problem is Mosek.MSK_PRO_STA_UNKNOWN, solution is Mosek.MSK_SOL_STA_UNKNOWN, response is Mosek.MSK_RES_OK

Mosek problem is Mosek.MSK_PRO_STA_UNKNOWN, solution is Mosek.MSK_SOL_STA_UNKNOWN, response is Mosek.MSK_RES_OK

Mosek problem is Mosek.MSK_PRO_STA_UNKNOWN, solution is Mosek.MSK_SOL_STA_UNKNOWN, response is Mosek.MSK_RES_OK

Mosek problem is Mosek.MSK_PRO_STA_UNKNOWN, solution is Mosek.MSK_SOL_STA_UNKNOWN, response is Mosek.MSK_RES_OK

Mosek problem is Mosek.MSK_PRO_STA_UNKNOWN, solution is Mosek.MSK_SOL_STA_UNKNOWN, response is Mosek.MSK_RES_OK

Mosek problem is Mosek.MSK_PRO_STA_UNKNOWN, solution is Mosek.MSK_SOL_STA_UNKNOWN, response is Mosek.MSK_RES_OK

Mosek problem is Mosek.MSK_PRO_STA_UNKNOWN, solution is Mosek.MSK_SOL_STA_UNKNOWN, response is Mosek.MSK_RES_OK

Mosek problem is Mosek.MSK_PRO_STA_UNKNOWN, solution is Mosek.MSK_SOL_STA_UNKNOWN, response is Mosek.MSK_RES_OK

WARNING: Conic solver failure: returned status Unknown
WARNING: Conic solver failure: returned status Unknown
WARNING: Conic solver failure: returned status Unknown
WARNING: Conic solver failure: returned status Unknown
WARNING: Conic solver failure: returned status Unknown
WARNING: Conic solver failure: returned status Unknown
WARNING: Conic solver failure: returned status Unknown
WARNING: Conic solver failure: returned status Unknown
WARNING: Conic solver failure: returned status Unknown
WARNING: Conic solver failure: returned status Unknown

MIP-solver-driven algorithm summary:
 - Status               =        Optimal
 - Best feasible        =  +1.956871e+06
 - Best bound           =  +1.956852e+06
 - Relative opt. gap    =      9.980e-06
 - Total time (s)       =       2.96e+00

Timers (s):
 - Setup                =   3.08e-02
 -- Transform data      =   9.92e-03
 -- Create conic data   =   1.17e-02
 -- Create MIP data     =   9.17e-03
 - Algorithm            =   2.93e+00
 -- Solve relaxation    =   1.74e-01
 -- Get relaxation cuts =   1.20e-03
 -- MIP solver driving  =   2.74e+00
 -- Solve subproblems   =   1.20e-01
 -- Get subproblem cuts =   0.00e+00
 -- Get separation cuts =   1.23e-02

Counters:
 - Lazy callbacks       =    60
 -- Integer repeats     =    51
 -- Conic subproblems   =    10
 --- Infeasible         =     0
 --- Optimal            =     0
 --- Suboptimal         =     0
 --- UserLimit          =     0
 --- ConicFailure       =     0
 --- Other status       =    10
 -- Feasible solutions  =    25
 --- From subproblems   =     0
 --- In lazy callback   =    25
 - Heuristic callbacks  =    68
 -- Solutions passed    =     0

Solution returned by MIP solver

Rounds of full separation/subproblem cuts, and count of cuts added:
Cone             | Subp.  | Sep.   | Total  | Relax. | Viol. 
    Second order |    240 |    884 |   1570 |    477 |   1570

4 numerically unstable disaggregated SOC cuts

Distance to feasibility (negative indicates strict feasibility):
Cone             | Variable  | Constraint
          Linear |  0.00e+00 |  2.27e-13
    Rotated S.O. |        NA |  6.65e-07

Distance to integrality of integer/binary variables:
         integer |  0.00e+00


Clique cuts applied:  25
Cover cuts applied:  8
Implied bound cuts applied:  58
Flow cuts applied:  14
Mixed integer rounding cuts applied:  101
Gomory fractional cuts applied:  6
User cuts applied:  1205

Root node processing (before b&c):
  Real time             =    1.75 sec. (1280.96 ticks)
Sequential b&c:
  Real time             =    0.99 sec. (860.81 ticks)
                          ------------
Total (root+branch&cut) =    2.74 sec. (2141.77 ticks)
#STATUS# Optimal
#OBJVAL# 1.9568712667036995e6
#OBJBOUND# 1.9568517377547817e6
#NODECOUNT# 95
#TIMESOLVER# 2.958498001098633
#TIMEALL# 2.995803117752075
#SOLUTION# [1.0,1.0,1.0,1.0,1.0,1.0,1.0,1.0,1.0,1.0,1.0,1.0,1.0,1.0,1.0,1.0,1.0,1.0,1.0,1.0,1.0,1.0,1.0,1.0,0.0,0.0,0.0,0.0,0.0,-0.0,0.0,1.0,1.0,1.0,1.0,1.0,1.0,1.0,1.0,1.0,1.0,1.0,1.0,1.0,1.0,1.0,1.0,1.0,1.0,1.0,1.0,1.0,1.0,1.0,1.0,1.0,1.0,1.0,1.0,1.0,1.0,1.0,1.0,1.0,1.0,1.0,0.0,0.0,0.0,-0.0,0.0,0.0,1.0,1.0,1.0,1.0,1.0,1.0,1.0,1.0,1.0,1.0,1.0,1.0,1.0,1.0,0.0,0.0,0.0,0.0,0.0,0.0,0.0,0.0,0.0,0.0,1.0,1.0,0.0,0.0,0.0,0.0,0.0,0.0,0.0,-0.0,0.0,-0.0,0.0,0.0,1.0,1.0,1.0,1.0,1.0,1.0,1.0,1.0,1.0,0.0,1.0,1.0,1.0,1.0,1.0,1.0,1.0,1.0,1.0,1.0,1.0,1.0,1.0,1.0,1.0,1.0,1.0,1.0,1.0,1.0,1.0,1.0,1.0,1.0,1.0,1.0,1.0,1.0,1.0,1.0,1.0,1.0,1.0,1.0,1.0,1.0,1.0,1.0,1.0,1.0,1.0,1.0,1.0,1.0,1.0,1.0,1.0,1.0,0.0,0.0,0.0,0.0,-0.0,1.0,1.0,1.0,1.0,1.0,1.0,1.0,1.0,1.0,1.0,1.0,1.0,1.0,1.0,1.0,1.0,1.0,1.0,1.0,1.0,1.0,0.0,0.0,-0.0,1.0,1.0,1.0,1.0,1.0,1.0,1.0,1.0,1.0,1.0,1.0,1.0,1.0,1.0,1.0,1.0,1.0,1.0,1.0,1.0,1.0,1.0,1.0,1.0,1.0,1.0,1.0,1.0,1.0,1.0,1.0,1.0,1.0,1.0,1.0,1.0,1.0,1.0,1.0,1.0,1.0,1.0,1.0,0.0,0.0,0.0,0.0,0.0,0.0,0.0,0.0,0.0,0.0,0.0,0.0,0.0,0.0,0.0,0.0,0.0,0.0,0.0,0.0,0.0,0.0,0.0,0.0,0.0,0.0,0.0,0.0,0.0,0.0,0.0,1.0,0.0,0.0,0.0,0.0,0.0,0.0,0.0,0.0,0.0,0.0,0.0,0.0,0.0,0.0,0.0,0.0,0.0,0.0,0.0,0.0,0.0,0.0,0.0,0.0,0.0,0.0,0.0,0.0,0.0,0.0,0.0,0.0,0.0,0.0,0.0,0.0,0.0,0.0,0.0,0.0,0.0,0.0,0.0,0.0,0.0,0.0,0.0,0.0,0.0,0.0,0.0,0.0,0.0,0.0,0.0,0.0,0.0,0.0,0.0,0.0,0.0,0.0,0.0,0.0,0.0,0.0,0.0,0.0,0.0,0.0,0.0,0.0,0.0,0.0,0.0,0.0,0.0,0.0,1.0,0.0,0.0,0.0,0.0,0.0,0.0,0.0,0.0,0.0,0.0,0.0,0.0,0.0,0.0,0.0,0.0,0.0,0.0,0.0,0.0,0.0,0.0,0.0,0.0,0.0,0.0,0.0,0.0,0.0,0.0,0.0,0.0,0.0,0.0,0.0,0.0,0.0,0.0,0.0,0.0,0.0,0.0,0.0,0.0,0.0,0.0,0.0,0.0,0.0,0.0,0.0,0.0,0.0,0.0,0.0,0.0,0.0,0.0,0.0,0.0,0.0,0.0,1.0,0.0,0.0,0.0,0.0,0.0,0.0,0.0,0.0,0.0,0.0,0.0,0.0,0.0,0.0,0.0,0.0,0.0,0.0,0.0,0.0,0.0,0.0,0.0,1.0,0.0,0.0,0.0,0.0,0.0,0.0,0.0,0.0,0.0,0.0,0.0,0.0,0.0,0.0,0.0,0.0,0.0,0.0,0.0,0.0,0.0,0.0,0.0,0.0,0.0,0.0,0.0,0.0,0.0,0.0,0.0,0.0,0.0,0.0,0.0,0.0,0.0,0.0,0.0,0.0,0.0,0.0,0.6015078461573574,0.6971399616956517,0.5504343349290848,0.5374397742867116,0.5693017786698759,0.4827147033198045,0.6499983877373856,0.7284682772938966,1.0000000000000004,1.0000000000000004,1.0000000000000004,1.0000000000000004,1.0000000000000004,0.7612674537423134,0.9105443429816471,1.0,1.0,1.0,1.0,1.0000000000000002,1.0,1.0000000000000004,0.8169826935108171,0.6184039522013628,0.0,0.0,0.0,0.0,0.0,0.0,0.0,0.0,0.3448557391304348,0.6897114782608696,1.0000000000000004,1.0000000000000004,1.0000000000000004,1.0000000000000004,1.0000000000000004,1.0000000000000004,1.0000000000000004,1.0000000000000004,1.0,1.0000000000000004,1.0000000000000004,1.0,1.0000000000000004,1.0,0.7184403658326928,0.8621417053557001,0.6411421179203544,0.6217762563761933,0.6695779179365966,0.5404231768217622,0.7913606861954783,0.9082854951666723,1.0,1.0,1.0,1.0,1.0000000000000004,0.9585623155977281,1.0,0.8853310708661419,0.44266553543307086,0.0,0.0,0.0,0.0,0.0,0.0,0.0,0.39814521374045786,0.0,0.0,0.0,0.0,0.0,0.2812190992366403,0.6251321679389303,0.9690452366412203,0.8961082061068686,0.4612025877862575,0.6084051297709905,0.41245268702289867,0.0,0.0,0.0,0.0,0.0,0.0,0.0,0.0,0.0,0.0,0.0,0.11230585256410208,0.0,0.0,0.0,0.0,0.0,0.0,0.0,0.0,0.0,0.0,0.0,0.0,0.0,0.0,0.03498457051282022,0.3572134871794868,0.4738249230769221,0.5600985384615381,0.6717460384615374,0.9034146089743582,0.4624069743589725,0.0,0.0,0.9200565942028988,1.0000000000000004,1.0,1.0,1.0,1.0,1.0,1.0,1.0000000000000004,1.0000000000000004,1.0000000000000004,1.0000000000000004,1.0,1.0000000000000004,1.0000000000000004,1.0000000000000004,1.0000000000000004,1.0000000000000004,1.0000000000000004,1.0000000000000004,1.0000000000000004,1.0000000000000004,1.0000000000000004,1.0,1.0000000000000007,1.0000000000000004,1.0000000000000004,1.0,1.0,1.0,1.0,1.0,1.0000000000000004,1.0,1.0000000000000004,1.0000000000000004,1.0,1.0,1.0000000000000004,1.0000000000000004,1.0,1.0000000000000004,1.0000000000000004,1.0,1.0000000000000004,1.0,1.0,1.0,0.0,0.0,0.0,0.0,0.0,0.0,0.456522320754717,0.913044641509434,1.0,1.0000000000000004,1.0000000000000004,1.0000000000000004,1.0,1.0,1.0,1.0000000000000004,1.0,1.0000000000000004,1.0000000000000004,1.0000000000000004,1.0000000000000004,1.0,1.0000000000000004,1.0,0.4360700967741936,0.0,0.0,0.0,0.0,0.0,0.4582110483870968,0.9164220967741936,1.0,1.0000000000000007,1.0000000000000002,1.0000000000000004,1.0000000000000004,0.9484147787227455,0.989054276969532,1.0,1.0,1.0000000000000007,1.0000000000000004,1.0,1.0,1.0000000000000004,0.9636075750576915,0.909435237207978,1.0000000000000004,1.0000000000000004,1.0000000000000002,1.0,1.0,1.0,1.0,1.0,1.0,1.0000000000000004,1.0000000000000004,1.0000000000000004,1.0000000000000004,1.0,1.0,1.0,1.0000000000000004,1.0,1.0000000000000004,1.0000000000000004,1.0000000000000004,1.0000000000000004,1.0,1.0,1.0,1.0,1.0,1.0,1.0,1.0,1.0,1.0,1.0,1.0,1.0,1.0,1.0,1.0,1.0,1.0,1.0,1.0,1.0,1.0,1.0,1.0,1.0,1.0,0.0,0.0,0.0,0.0,0.0,-0.0,0.0,1.0,1.0,1.0,1.0,1.0,1.0,1.0,1.0,1.0,1.0,1.0,1.0,1.0,1.0,1.0,1.0,1.0,1.0,1.0,1.0,1.0,1.0,1.0,1.0,1.0,1.0,1.0,1.0,1.0,1.0,1.0,1.0,1.0,1.0,1.0,0.0,0.0,0.0,-0.0,0.0,0.0,1.0,1.0,1.0,1.0,1.0,1.0,1.0,1.0,1.0,1.0,1.0,1.0,1.0,1.0,0.0,0.0,0.0,0.0,0.0,0.0,0.0,0.0,0.0,0.0,1.0000000000000002,1.0,0.0,0.0,0.0,0.0,0.0,0.0,0.0,-0.0,0.0,-0.0,0.0,0.0,1.0,1.0,1.0,1.0,1.0,1.0,1.0,1.0,1.0,0.0,1.0000000000000002,1.0,1.0,1.0,1.0,1.0,1.0,1.0,1.0,1.0,1.0,1.0,1.0,1.0,1.0,1.0,1.0,1.0,1.0,1.0,1.0,1.0,1.0,1.0,1.0000000000000002,1.0000000000000002,1.0,1.0,1.0,1.0,1.0,1.0,1.0,1.0,1.0,1.0,1.0,1.0,1.0,1.0,1.0,1.0,1.0,1.0,1.0,1.0,1.0,1.0,0.0,0.0,0.0,0.0,-0.0,1.0,1.0,1.0,1.0,1.0,1.0,1.0,1.0,1.0,1.0,1.0,1.0,1.0,1.0,1.0,1.0,1.0,1.0,1.0,1.0000000000000002,1.0,0.0,0.0,-0.0,1.0,1.0,1.0,1.0,1.0,1.0,1.0,1.0,1.0,1.0,1.0,1.0,1.0,1.0,1.0,1.0,1.0,1.0,1.0,1.0000000000000002,1.0,1.0,1.0,1.0,1.0,1.0,1.0,1.0,1.0,1.0,1.0,1.0,1.0,1.0,1.0,1.0,1.0,1.0,1.0,1.0,1.0,1.0,1.0,0.0,0.0,0.0,0.0,0.0,0.0,0.0,0.0,0.0,0.0,0.0,0.0,0.0,0.0,0.0,0.0,0.0,0.0,0.0,0.0,0.0,0.0,0.0,0.0,0.0,0.0,0.0,0.0,0.0,-0.0,-0.0,433.39931,0.0,0.0,0.0,0.0,0.0,0.0,0.0,0.0,0.0,0.0,0.0,0.0,0.0,0.0,0.0,0.0,0.0,0.0,0.0,0.0,0.0,0.0,0.0,0.0,0.0,0.0,0.0,0.0,0.0,0.0,0.0,0.0,0.0,0.0,0.0,0.0,0.0,-0.0,-0.0,0.0,0.0,0.0,0.0,0.0,0.0,0.0,0.0,0.0,0.0,0.0,0.0,0.0,0.0,0.0,0.0,0.0,-0.0,0.0,0.0,-0.0,0.0,-0.0,-0.0,0.0,0.0,0.0,0.0,0.0,0.0,0.0,0.0,0.0,0.0,-0.0,0.0,-0.0,-0.0,-0.0,308.480042,0.0,0.0,0.0,0.0,0.0,0.0,0.0,0.0,0.0,0.0,0.0,0.0,0.0,0.0,0.0,0.0,0.0,0.0,0.0,0.0,0.0,0.0,0.0,0.0,0.0,0.0,0.0,0.0,0.0,0.0,0.0,0.0,0.0,0.0,0.0,0.0,0.0,0.0,0.0,0.0,0.0,0.0,0.0,0.0,0.0,0.0,0.0,0.0,0.0,0.0,0.0,0.0,0.0,0.0,0.0,0.0,0.0,-0.0,-0.0,-0.0,-0.0,-0.0,132.772577,0.0,0.0,0.0,0.0,0.0,0.0,0.0,0.0,0.0,0.0,0.0,0.0,0.0,0.0,0.0,0.0,0.0,0.0,0.0,0.0,0.0,0.0,-0.0,142.354053,0.0,0.0,0.0,0.0,0.0,0.0,0.0,0.0,0.0,0.0,0.0,0.0,0.0,0.0,0.0,0.0,0.0,0.0,0.0,0.0,0.0,0.0,0.0,0.0,0.0,0.0,0.0,0.0,0.0,0.0,0.0,0.0,0.0,0.0,0.0,0.0,0.0,0.0,0.0,0.0,0.0,0.0,0.1809058296283258,0.24300205833433858,0.1514889742222098,0.14442075434717694,0.1620522488786733,0.1165065712357104,0.2112489496297033,0.2653329247714036,0.49999999999998906,0.4999999999999881,0.49999999999998734,0.4999999999999883,0.49999999999998823,0.28976406257121773,0.41454549331851737,0.4999999999999929,0.4999999999999931,0.499999999999993,0.4999999999999918,0.4999999999999939,0.4999999999999945,0.4999999999999942,0.33373035234808757,0.19121171894983116,0.0,0.0,0.0,0.0,0.0,0.0,0.0,0.0,0.05946274039306043,0.23785096161926056,0.49999999999999756,0.49999999999999784,0.4999999999999978,0.49999999999999656,0.4999999999999978,0.49999999999999767,0.49999999999999784,0.4999999999999978,0.4999999999999968,0.49999999999999767,0.49999999999999784,0.49999999999999706,0.49999999999999745,0.49999999999999656,0.25807827962889524,0.3716441563223666,0.20553159427785578,0.1933028500797759,0.224167292534669,0.14602806575093263,0.3131258603457065,0.4124909889037295,0.499999999999997,0.49999999999999617,0.4999999999999951,0.499999999999996,0.49999999999999517,0.45942085354440115,0.49999999999999045,0.391905552505239,0.09797638812441417,0.0,0.0,0.0,0.0,0.0,0.0,0.0,0.07925980561221652,0.0,0.0,0.0,0.0,0.0,0.03954208249453689,0.19539511369601342,0.469524328821907,0.4015049585188699,0.10635391348805036,0.18507839234570728,0.08505860950633826,0.0,0.0,0.0,0.0,0.0,0.0,0.0,0.0,0.0,0.0,0.0,0.006306302250352169,0.0,0.0,0.0,0.0,0.0,0.0,0.0,0.0,0.0,0.0,0.0,0.0,0.0,0.0,0.000611959858925315,0.06380073769994637,0.11225502886329564,0.15685518041659552,0.22562137009375954,0.408078977850058,0.10691010496573472,0.0,0.0,0.42325206826717376,0.4999999999999942,0.49999999999999256,0.49999999999999367,0.4999999999999936,0.4999999999999931,0.4999999999999935,0.4999999999999939,0.4999999999999966,0.49999999999999595,0.4999999999999952,0.49999999999999584,0.4999999999999953,0.49999999999999434,0.4999999999999957,0.4999999999999952,0.49999999999999545,0.49999999999999545,0.499999999999995,0.49999999999999556,0.49999999999999584,0.4999999999999957,0.4999999999999957,0.49999999999999484,0.4999999999999887,0.4999999999999897,0.4999999999999642,0.4999999999999656,0.4999999999999657,0.4999999999999643,0.4999999999999894,0.49999999999999445,0.49999999999999756,0.49999999999999656,0.4999999999999965,0.499999999999997,0.4999999999999965,0.4999999999999951,0.4999999999999967,0.4999999999999966,0.4999999999999964,0.4999999999999968,0.49999999999999634,0.4999999999999962,0.4999999999999971,0.4999999999999965,0.4999999999999966,0.4999999999999961,0.0,0.0,0.0,0.0,0.0,0.0,0.10420631467067698,0.41682525869273024,0.49999999999999584,0.49999999999999545,0.4999999999999942,0.49999999999999517,0.49999999999999456,0.4999999999999915,0.4999999999999942,0.49999999999999456,0.49999999999999406,0.49999999999999467,0.49999999999999356,0.49999999999999467,0.4999999999999954,0.4999999999999945,0.4999999999999951,0.49999999999999345,0.0950785646427515,0.0,0.0,0.0,0.0,0.0,0.10497868242928693,0.4199147284322554,0.49999999999999384,0.4999999999999934,0.4999999999999913,0.49999999999999273,0.49999999999999245,0.44974528678596,0.48911416950926173,0.49999999999999145,0.4999999999999917,0.4999999999999925,0.4999999999999896,0.49999999999999195,0.49999999999999306,0.4999999999999929,0.4642697771856342,0.4135362222934803,0.4999999999999679,0.49999999999996864,0.49999999999986827,0.49999999999970685,0.4999999999997128,0.4999999999997097,0.4999999999999286,0.4999999999999835,0.4999999999999957,0.49999999999999545,0.49999999999999484,0.49999999999999534,0.49999999999999534,0.4999999999999932,0.49999999999999484,0.49999999999999456,0.499999999999995,0.4999999999999948,0.49999999999999467,0.49999999999999517,0.49999999999999556,0.49999999999999556,0.49999999999999517,0.4999999999999946]
